VACCINE = Vaccine(1..2);
m = 24;
age = [CHILD, ADULT, BABY, ANCIENT, BABY, BABY, YOUTH, ADULT, BABY, CHILD, SENIOR, SENIOR, SENIOR, YOUTH, SENIOR, ANCIENT, CHILD, AGED, ANCIENT, AGED, CHILD, AGED, ADULT, BABY];
gender = [OTHER, FEMALE, MALE, FEMALE, MALE, OTHER, FEMALE, MALE, FEMALE, MALE, OTHER, MALE, MALE, MALE, FEMALE, OTHER, OTHER, OTHER, OTHER, OTHER, FEMALE, MALE, OTHER, OTHER];
health = [GOOD, COMPROMISED, POOR, POOR, POOR, GOOD, COMPROMISED, COMPROMISED, POOR, POOR, POOR, GOOD, GOOD, GOOD, POOR, COMPROMISED, GOOD, POOR, COMPROMISED, COMPROMISED, POOR, GOOD, COMPROMISED, COMPROMISED];
exposure = [EXTREME, AVERAGE, HIGH, EXTREME, LOW, AVERAGE, LOW, HIGH, HIGH, HIGH, LOW, EXTREME, AVERAGE, HIGH, AVERAGE, EXTREME, HIGH, EXTREME, HIGH, EXTREME, AVERAGE, HIGH, LOW, EXTREME];
size = [5, 6, 4, 6, 8, 7, 5, 8, 6, 6, 5, 4, 5, 6, 3, 6, 6, 6, 3, 4, 8, 8, 7, 6];
minsize = 3;
age_group_min = [0, 1, 0, 0, 0, 0, 0];
age_group_max = [23, 18, 20, 18, 12, 21, 13];
max_people_diff = 67;
max_share_vaccines = 2;
health_information = {7, 12, 15};
exposure_information = {2, 14, 18, 22};